presolving:
(round 1, fast)       0 del vars, 90 del conss, 0 add conss, 95 chg bounds, 0 chg sides, 5386 chg coeffs, 0 upgd conss, 0 impls, 8241 clqs
   (0.1s) running MILP presolver
   (0.2s) MILP presolver (2 rounds): 0 aggregations, 0 fixings, 0 bound changes
(round 2, exhaustive) 1 del vars, 91 del conss, 0 add conss, 95 chg bounds, 0 chg sides, 5386 chg coeffs, 8370 upgd conss, 0 impls, 8241 clqs
(round 3, fast)       1 del vars, 91 del conss, 0 add conss, 95 chg bounds, 47 chg sides, 5452 chg coeffs, 8370 upgd conss, 0 impls, 8331 clqs
   (0.6s) probing: 51/8280 (0.6%) - 0 fixings, 0 aggregations, 0 implications, 0 bound changes
   (0.6s) probing aborted: 50/50 successive totally useless probings
   (0.7s) symmetry computation started: requiring (bin +, int -, cont +), (fixed: bin -, int +, cont -)
   (0.7s) no symmetry present
   (0.7s) symmetry computation started: requiring (bin +, int +, cont +), (fixed: bin -, int -, cont -)
   (0.8s) no symmetry present
presolving (4 rounds: 4 fast, 2 medium, 2 exhaustive):
 1 deleted vars, 91 deleted constraints, 0 added constraints, 95 tightened bounds, 0 added holes, 47 changed sides, 5542 changed coefficients
 0 implications, 8331 cliques
presolved problem has 8280 variables (8190 bin, 0 int, 90 impl, 0 cont) and 8372 constraints
    180 constraints of type <knapsack>
   8190 constraints of type <setppc>
      2 constraints of type <linear>
Presolving Time: 0.79

 time | node  | left  |LP iter|LP it/n|mem/heur|mdpt |vars |cons |rows |cuts |sepa|confs|strbr|  dualbound   | primalbound  |  gap   | compl. 
p 0.9s|     1 |     0 |     0 |     - |  clique|   0 |8280 |8372 |8372 |   0 |  0 |   0 |   0 | 1.990000e+02 | 2.558117e+03 |1185.49%| unknown
p 1.4s|     1 |     0 |    94 |     - | vbounds|   0 |8280 |8374 |8372 |   0 |  0 |   2 |   0 | 1.990000e+02 | 1.843393e+03 | 826.33%| unknown
  5.8s|     1 |     0 | 10205 |     - |   108M |   0 |8280 |8374 |8372 |   0 |  0 |   2 |   0 | 1.266797e+03 | 1.843393e+03 |  45.52%| unknown
  7.3s|     1 |     0 | 10292 |     - |   110M |   0 |8280 |8374 |8373 |   1 |  1 |   2 |   0 | 1.267116e+03 | 1.843393e+03 |  45.48%| unknown
  8.0s|     1 |     0 | 10440 |     - |   111M |   0 |8280 |8374 |8374 |   2 |  2 |   2 |   0 | 1.267737e+03 | 1.843393e+03 |  45.41%| unknown
  8.8s|     1 |     0 | 10603 |     - |   112M |   0 |8280 |8374 |8375 |   3 |  3 |   2 |   0 | 1.268111e+03 | 1.843393e+03 |  45.37%| unknown
  9.2s|     1 |     0 | 10652 |     - |   113M |   0 |8280 |8374 |8376 |   4 |  4 |   2 |   0 | 1.268372e+03 | 1.843393e+03 |  45.34%| unknown
  9.9s|     1 |     0 | 10772 |     - |   114M |   0 |8280 |8374 |8377 |   5 |  5 |   2 |   0 | 1.268855e+03 | 1.843393e+03 |  45.28%| unknown
 10.4s|     1 |     0 | 10793 |     - |   114M |   0 |8280 |8374 |8378 |   6 |  6 |   2 |   0 | 1.268945e+03 | 1.843393e+03 |  45.27%| unknown
 10.9s|     1 |     0 | 10944 |     - |   115M |   0 |8280 |8374 |8380 |   8 |  7 |   2 |   0 | 1.269758e+03 | 1.843393e+03 |  45.18%| unknown
 11.4s|     1 |     0 | 11038 |     - |   116M |   0 |8280 |8374 |8381 |   9 |  8 |   2 |   0 | 1.270204e+03 | 1.843393e+03 |  45.13%| unknown
d18.5s|     1 |     0 | 21279 |     - |farkasdi|   0 |8280 |8374 |8381 |   0 | 10 |   2 |   0 | 1.270204e+03 | 1.391193e+03 |   9.53%| unknown
L33.0s|     1 |     0 | 47337 |     - |    rens|   0 |8280 |8390 |8381 |   9 | 10 |  18 |   0 | 1.270204e+03 | 1.349608e+03 |   6.25%| unknown
 33.1s|     1 |     0 | 47337 |     - |   119M |   0 |8280 |8390 |8381 |   9 | 10 |  18 |   0 | 1.270204e+03 | 1.349608e+03 |   6.25%| unknown
 33.2s|     1 |     0 | 47337 |     - |   119M |   0 |8280 |8390 |6607 |   9 | 10 |  18 |   0 | 1.270204e+03 | 1.349608e+03 |   6.25%| unknown
 time | node  | left  |LP iter|LP it/n|mem/heur|mdpt |vars |cons |rows |cuts |sepa|confs|strbr|  dualbound   | primalbound  |  gap   | compl. 
 33.7s|     1 |     0 | 47502 |     - |   120M |   0 |8280 |6633 |6590 |  10 | 11 |  18 |   0 | 1.270701e+03 | 1.349608e+03 |   6.21%| unknown
 33.8s|     1 |     0 | 47502 |     - |   120M |   0 |8280 |6633 |6581 |  10 | 11 |  18 |   0 | 1.270701e+03 | 1.349608e+03 |   6.21%| unknown
(run 1, node 1) restarting after 2064 global fixings of integer variables

(restart) converted 10 cuts from the global cut pool into linear constraints

presolving:
(round 1, fast)       2064 del vars, 2 del conss, 0 add conss, 0 chg bounds, 6 chg sides, 117 chg coeffs, 0 upgd conss, 0 impls, 6273 clqs
   (33.9s) running MILP presolver
   (33.9s) MILP presolver found nothing
(round 2, medium)     2064 del vars, 105 del conss, 100 add conss, 0 chg bounds, 7 chg sides, 119 chg coeffs, 0 upgd conss, 0 impls, 6294 clqs
(round 3, exhaustive) 2064 del vars, 105 del conss, 100 add conss, 0 chg bounds, 7 chg sides, 119 chg coeffs, 10 upgd conss, 0 impls, 6294 clqs
presolving (4 rounds: 4 fast, 3 medium, 2 exhaustive):
 2064 deleted vars, 105 deleted constraints, 100 added constraints, 0 tightened bounds, 0 added holes, 7 changed sides, 119 changed coefficients
 0 implications, 6294 cliques
presolved problem has 6216 variables (6126 bin, 0 int, 90 impl, 0 cont) and 6314 constraints
    153 constraints of type <knapsack>
   6143 constraints of type <setppc>
      2 constraints of type <linear>
     16 constraints of type <logicor>
Presolving Time: 1.03
transformed 4/5 original solutions to the transformed problem space

 time | node  | left  |LP iter|LP it/n|mem/heur|mdpt |vars |cons |rows |cuts |sepa|confs|strbr|  dualbound   | primalbound  |  gap   | compl. 
 37.1s|     1 |     0 | 55542 |     - |   121M |   0 |6216 |6314 |6297 |   0 |  0 |  18 |   0 | 1.270701e+03 | 1.349608e+03 |   6.21%| unknown
 37.3s|     1 |     0 | 55542 |     - |   121M |   0 |6216 |6314 |5508 |   0 |  0 |  18 |   0 | 1.270701e+03 | 1.349608e+03 |   6.21%| unknown
 37.8s|     1 |     0 | 55608 |     - |   123M |   0 |6216 |5534 |5500 |   1 |  1 |  18 |   0 | 1.270992e+03 | 1.349608e+03 |   6.19%| unknown
 37.9s|     1 |     0 | 55608 |     - |   123M |   0 |6216 |5534 |5497 |   1 |  1 |  18 |   0 | 1.270992e+03 | 1.349608e+03 |   6.19%| unknown
(run 2, node 1) restarting after 953 global fixings of integer variables

(restart) converted 1 cuts from the global cut pool into linear constraints

presolving:
(round 1, fast)       953 del vars, 0 del conss, 0 add conss, 0 chg bounds, 3 chg sides, 34 chg coeffs, 0 upgd conss, 0 impls, 5330 clqs
   (40.4s) running MILP presolver
   (40.4s) MILP presolver found nothing
(round 2, medium)     953 del vars, 28 del conss, 27 add conss, 0 chg bounds, 3 chg sides, 34 chg coeffs, 0 upgd conss, 0 impls, 5330 clqs
presolving (3 rounds: 3 fast, 2 medium, 1 exhaustive):
 953 deleted vars, 28 deleted constraints, 27 added constraints, 0 tightened bounds, 0 added holes, 3 changed sides, 34 changed coefficients
 0 implications, 5330 cliques
presolved problem has 5263 variables (5173 bin, 0 int, 90 impl, 0 cont) and 5359 constraints
    135 constraints of type <knapsack>
   5199 constraints of type <setppc>
      2 constraints of type <linear>
     23 constraints of type <logicor>
Presolving Time: 1.20
transformed 4/5 original solutions to the transformed problem space

 time | node  | left  |LP iter|LP it/n|mem/heur|mdpt |vars |cons |rows |cuts |sepa|confs|strbr|  dualbound   | primalbound  |  gap   | compl. 
 43.6s|     1 |     0 | 67527 |     - |   125M |   0 |5263 |5359 |5335 |   0 |  0 |  25 |   0 | 1.270992e+03 | 1.349608e+03 |   6.19%| unknown
 43.7s|     1 |     0 | 67527 |     - |   125M |   0 |5263 |5359 |5210 |   0 |  0 |  25 |   0 | 1.270992e+03 | 1.349608e+03 |   6.19%| unknown
 44.3s|     1 |     0 | 67626 |     - |   126M |   0 |5263 |5236 |5209 |   1 |  1 |  25 |   0 | 1.271156e+03 | 1.349608e+03 |   6.17%| unknown
 44.9s|     1 |     0 | 67702 |     - |   126M |   0 |5263 |5235 |5210 |   2 |  2 |  25 |   0 | 1.271735e+03 | 1.349608e+03 |   6.12%| unknown
 45.0s|     1 |     0 | 67702 |     - |   126M |   0 |5263 |5235 |5209 |   2 |  2 |  25 |   0 | 1.271735e+03 | 1.349608e+03 |   6.12%| unknown
 57.0s|     1 |     2 | 70848 |     - |   126M |   0 |5263 |5200 |5209 |   2 |  4 |  27 |  23 | 1.280922e+03 | 1.349608e+03 |   5.36%| unknown
(run 3, node 1) restarting after 159 global fixings of integer variables

(restart) converted 2 cuts from the global cut pool into linear constraints

presolving:
(round 1, fast)       159 del vars, 0 del conss, 0 add conss, 0 chg bounds, 0 chg sides, 0 chg coeffs, 0 upgd conss, 0 impls, 5158 clqs
presolving (2 rounds: 2 fast, 1 medium, 1 exhaustive):
 159 deleted vars, 0 deleted constraints, 0 added constraints, 0 tightened bounds, 0 added holes, 0 changed sides, 0 changed coefficients
 0 implications, 5158 cliques
presolved problem has 5104 variables (5014 bin, 0 int, 90 impl, 0 cont) and 5202 constraints
    133 constraints of type <knapsack>
   5042 constraints of type <setppc>
      2 constraints of type <linear>
     25 constraints of type <logicor>
Presolving Time: 1.46
transformed 5/6 original solutions to the transformed problem space

 time | node  | left  |LP iter|LP it/n|mem/heur|mdpt |vars |cons |rows |cuts |sepa|confs|strbr|  dualbound   | primalbound  |  gap   | compl. 
 60.7s|     1 |     0 | 79070 |     - |   127M |   0 |5104 |5202 |5176 |   0 |  0 |  27 |  23 | 1.280922e+03 | 1.349608e+03 |   5.36%| unknown
 60.8s|     1 |     0 | 79070 |     - |   127M |   0 |5104 |5202 |5050 |   0 |  0 |  27 |  23 | 1.280922e+03 | 1.349608e+03 |   5.36%| unknown
 61.2s|     1 |     0 | 79136 |     - |   128M |   0 |5104 |5078 |5049 |   1 |  1 |  27 |  23 | 1.280922e+03 | 1.349608e+03 |   5.36%| unknown
 61.3s|     1 |     0 | 79136 |     - |   128M |   0 |5104 |5078 |5034 |   1 |  1 |  27 |  23 | 1.280922e+03 | 1.349608e+03 |   5.36%| unknown
 70.8s|     1 |     2 | 82663 |     - |   129M |   0 |5104 |5054 |5034 |   1 |  3 |  45 |  43 | 1.284069e+03 | 1.349608e+03 |   5.10%| unknown
d83.6s|    10 |    11 | 85175 |4088.8 |pscostdi|   8 |5104 |5059 |5034 |   0 |  1 |  50 | 139 | 1.285246e+03 | 1.344054e+03 |   4.58%| unknown
r99.3s|    18 |    11 | 89029 |2646.0 |shifting|  10 |5104 |5083 |5034 |   1 |  1 |  74 | 219 | 1.312936e+03 | 1.337624e+03 |   1.88%|  30.48%
*99.3s|    18 |    11 | 89055 |2647.3 |strongbr|  10 |5104 |5083 |5035 |   2 |  2 |  74 | 219 | 1.312936e+03 | 1.336498e+03 |   1.79%|  30.48%
*99.5s|    19 |    11 | 89095 |2523.1 |    LP  |  11 |5104 |5068 |5035 |   2 |  1 |  74 | 221 | 1.312936e+03 | 1.329410e+03 |   1.25%|  32.77%
r 101s|    25 |    10 | 90057 |1998.1 |rounding|  11 |5104 |4782 |5034 |   2 |  0 |  92 | 232 | 1.316575e+03 | 1.327129e+03 |   0.80%|  52.58%
* 101s|    26 |     9 | 90081 |1927.6 |    LP  |  11 |5104 |4781 |5036 |   4 |  3 |  96 | 234 | 1.316575e+03 | 1.325600e+03 |   0.69%|  53.09%
r 101s|    29 |     3 | 90165 |1743.7 |rounding|  11 |5104 |4781 |5035 |   4 |  0 |  96 | 234 | 1.316575e+03 | 1.324069e+03 |   0.57%|  54.88%

SCIP Status        : problem is solved [optimal solution found]
Solving Time (sec) : 102.64
Solving Nodes      : 34 (total of 37 nodes in 4 runs)
Primal Bound       : +1.32406857703131e+03 (16 solutions)
Dual Bound         : +1.32406857703131e+03
Gap                : 0.00 %
Solve Status: optimal
Solve Time: 102.65 seconds
